32	0

0	3	2	3	4
2	3	5	6	7
3	4	8	9	10	11
4	4	8	9	10	11
4	3	9	12	15
3	3	9	12	15
2	4	8	9	10	11
5	4	12	14	15	18
7	4	13	14	17	18
10	3	13	17	18
5	4	12	14	15	18
7	2	13	17
2	3	16	19	20
5	3	16	19	20
8	4	16	17	19	20
4	2	21	24
7	2	22	24
8	2	21	24
9	1	22
7	1	22
4	1	22
2	2	23	25
8	3	26	27	28
10	3	26	27	28
10	2	26	30
6	2	29	31
6	2	29	30
10	1	31
4	1	32
3	1	31
5	1	32
0	0
